(declare-const a Real)
(declare-const b Real)
(declare-const c Real)
(assert (= (+ a b c) 3))
(assert (> a 0))
(assert (> b 0))
(assert (> c 0))
(assert (not (<= (+ (* (pow (+ (* (pow b 2) (pow c 2)) (* (/ 1 2) a c (+ (pow a 2) (pow c 2)))) -4) (pow (+ (* a (pow b 2) (pow c 2)) (* (/ 1 2) a b c (+ (pow a 2) (pow c 2)))) 5)) (* -1 a (pow b 8)) (* -1 b (pow c 8)) (* -1 c (pow a 8)) (* (/ 1 2) a b (pow c 5) (+ (pow a 2) (pow b 2)))) 0)))
(check-sat)
(get-model)
(exit)